&BANDS
  outdir = '../../../../tmp/'
  prefix = 'gr-ab-2L'
  filband = 'gr-ab-2L.bands'
/
