&BANDS
  outdir        = '/home/rfa/Skripsi/DFT/dft-graphene/tmp'
  prefix = 'gr-ab-2L'
  filband = 'gr-ab-2L.bands'
/
