&BANDS
  outdir    = '../../../tmp/' 
  prefix    = 'gr-1L'
  filband   = 'gr-1L.bands'
/
