&BANDS
  outdir        = '/home/rfa/Skripsi/DFT/dft-graphene/tmp'
  prefix    = 'gr-1L'
  filband   = 'gr-1L.bands'
/
