&BANDS
  outdir = '../../../../tmp/' 
  prefix = 'gr-ab-3L'
  filband = 'gr-ab-3L.bands'
/
