&BANDS
  outdir        = '/home/rfa/Skripsi/DFT/dft-graphene/tmp'
  prefix = 'gr-ab-3L'
  filband = 'gr-ab-3L.bands'
/
