&BANDS
  outdir = '../../../../tmp/'
  prefix = 'gr-aa-2L'
  filband = 'gr-aa-2L.bands'
/
