&BANDS
  outdir        = '/home/rfa/Skripsi/DFT/dft-graphene/tmp'
  prefix = 'gr-aa-2L'
  filband = 'gr-aa-2L.bands'
/
