&CONTROL
calculation   = 'scf'
pseudo_dir    = '/home/rfa/Skripsi/DFT/dft-graphene/pseudo'
outdir        = '/home/rfa/Skripsi/DFT/dft-graphene/tmp'
prefix        = 'gr-aa-2L'
/
&SYSTEM
ibrav         = 4
a             = 2.4639055825
c             = 15.0
nat           = 4
ntyp          = 1
occupations   = 'smearing'
smearing      = 'mv'
degauss       = 0.020
ecutwfc       = 60  ! Use converged value from tests
/
&ELECTRONS
mixing_beta   = 0.7
conv_thr      = 1.0D-8
/
ATOMIC_SPECIES
C 12.0107 C.pbe-n-rrkjus_psl.0.1.UPF
ATOMIC_POSITIONS (crystal)
C  0.333333333  0.666666666  0.4823607596  ! First layer modify after relaxation in z axis
C  0.666666666  0.333333333  0.4823607596  ! First layer 
C  0.333333333  0.666666666  0.5509725734  ! Second layer (AA stacking)
C  0.666666666  0.333333333  0.5509725734  ! Second layer (AA stacking)
K_POINTS (automatic)
12 12 1 0 0 0
