&bands
 outdir = '../../../../tmp/'
 prefix  = 'gr-aa-3L'
 filband = 'gr-aa-3L.bands'
/
