&bands
  outdir        = '/run/media/rfa/SATA/Skripsi/DFT/dft-graphene/tmp'
  prefix  = 'gr-aa-3L'
  filband = 'gr-aa-3L.bands'
/
