&CONTROL
calculation   = 'bands'
pseudo_dir    = '../../../../pseudo/' 
outdir        = '../../../../tmp/'
prefix        = 'gr-aa-3L'
/
&SYSTEM
ibrav         = 4
a             = 2.4639055825
c             = 15.0
nat           = 6
ntyp          = 1
nbnd          = 24  ! Increased for 3 layers
occupations   = 'smearing'
smearing      = 'mv'
degauss       = 0.020
ecutwfc       = 60  ! Use converged value from tests
/
&ELECTRONS
mixing_beta   = 0.7
conv_thr      = 1.0D-6
/
ATOMIC_SPECIES
C 12.0107 C.pbe-n-rrkjus_psl.0.1.UPF
ATOMIC_POSITIONS (crystal)
C  0.333333333  0.666666666  0.500000000  ! First layer
C  0.666666666  0.333333333  0.500000000  ! First layer
C  0.333333333  0.666666666  0.533333333  ! Second layer (AA stacking)
C  0.666666666  0.333333333  0.533333333  ! Second layer (AA stacking)
C  0.333333333  0.666666666  0.566666666  ! Third layer (AA stacking)
C  0.666666666  0.333333333  0.566666666  ! Third layer (AA stacking)
K_POINTS (crystal_b)
4
gG 40
K  20
M  30
gG 0
