&bands
  outdir        = '/home/rfa/Skripsi/DFT/dft-graphene/tmp'
  prefix  = 'gr-aa-4L'
  filband = 'gr-aa-4L.bands'
/
