&bands
  outdir        = '/run/media/rfa/SATA/Skripsi/DFT/dft-graphene/tmp'
  prefix  = 'gr-aa-4L'
  filband = 'gr-aa-4L.bands'
/
